unsat
((set-logic NIA)
(declare-fun n!0 () Int)
(declare-fun k!2 () Int)
(declare-fun c!3 () Int)
(declare-fun m!1 () Int)
(proof
(let ((?x1014 (* k!2 n!0)))
 (let ((?x232 (* 9 ?x1014)))
 (let ((?x1008 (* c!3 n!0)))
 (let ((?x1001 (* 9 ?x1008)))
 (let ((?x1000 (* k!2 k!2)))
 (let ((?x1007 (* (- 1) ?x1000)))
 (let ((?x398 (* 5 m!1)))
 (let ((?x177 (* (- 9) n!0)))
 (let ((?x531 (* k!2 m!1)))
 (let ((?x538 (* (- 2) ?x531)))
 (let ((?x936 (* 27 c!3)))
 (let ((?x444 (* m!1 m!1)))
 (let ((?x413 (* (- 1) ?x444)))
 (let ((?x197 (* 32 k!2)))
 (let ((?x970 (+ ?x197 ?x413 ?x936 ?x538 ?x177 ?x398 ?x1007 ?x1001 ?x232)))
 (let (($x906 (<= ?x970 13)))
 (let ((?x1002 (* (- 1) ?x1014)))
 (let ((?x1013 (* (- 2) n!0)))
 (let ((?x1011 (* 3 c!3)))
 (let ((?x927 (+ k!2 ?x1011 ?x1013 ?x1002)))
 (let (($x186 (<= ?x927 0)))
 (let (($x967 (= ?x927 0)))
 (let ((?x958 (+ (* 6 n!0) (* (- 1) m!1))))
 (let (($x959 (= ?x958 (- 6))))
 (let (($x964 (not $x959)))
 (let (($x449 (= (+ (* 3 k!2) (* (- 1) (* n!0 m!1)) ?x1011 ?x1013 ?x1002) 2)))
 (let ((?x940 (* 2 n!0)))
 (let ((?x919 (* (- 3) c!3)))
 (let ((?x458 (* n!0 m!1)))
 (let ((?x939 (* (- 3) k!2)))
 (let ((?x378 (* 336 ?x1000)))
 (let ((?x918 (* 4 (* k!2 m!1 m!1))))
 (let ((?x418 (* 24 ?x531)))
 (let ((?x411 (* 66 (* c!3 c!3 m!1))))
 (let ((?x191 (* (- 7) (* k!2 k!2 k!2 m!1))))
 (let ((?x510 (* 324 (* c!3 c!3))))
 (let ((?x917 (* 2 (* m!1 m!1 m!1))))
 (let ((?x452 (* 2 (* c!3 c!3 m!1 m!1))))
 (let ((?x419 (* 12 ?x444)))
 (let ((?x511 (* 324 (* c!3 c!3 n!0))))
 (let ((?x312 (* 2 (* k!2 k!2 m!1 m!1))))
 (let ((?x141 (* 336 (* k!2 k!2 n!0))))
 (let ((?x509 (* 68 (* k!2 k!2 m!1))))
 (let ((?x376 (* (- 42) (* k!2 k!2 k!2))))
 (let ((?x242 (+ ?x376 (* (- 7) (* k!2 c!3 c!3 m!1)) ?x509 (* (- 84) (* k!2 k!2 c!3)) (* 108 (* c!3 c!3 n!0 m!1)) (* 2 (* n!0 m!1 m!1 m!1)) (* 216 (* k!2 c!3 n!0 m!1)) (* 132 (* k!2 c!3 m!1)) (* 24 (* k!2 n!0 m!1)) (* 648 (* k!2 c!3)) (* 4 (* k!2 c!3 m!1 m!1)) (* (- 14) (* k!2 k!2 c!3 m!1)) (* 9 (* c!3 c!3 n!0 m!1 m!1)) (* 18 (* k!2 c!3 n!0 m!1 m!1)) ?x141 ?x312 ?x511 ?x419 ?x452 ?x917 ?x510 (* (- 42) (* k!2 c!3 c!3)) ?x191 (* 4 (* k!2 n!0 m!1 m!1)) (* 9 (* k!2 k!2 n!0 m!1 m!1)) (* 110 (* k!2 k!2 n!0 m!1)) ?x411 ?x418 (* 12 (* n!0 m!1 m!1)) ?x918 (* 648 (* k!2 c!3 n!0)) ?x378)))
 (let (($x214 (or (not (= (+ k!2 ?x177 m!1 (* (- 3) (* n!0 n!0))) 6)) (not (= (* ?x242 (+ 2 ?x939 ?x458 ?x919 ?x940 ?x1014)) 0)) (not $x449) $x964 (not (= ?x970 13)))))
 (let ((?x1018 (* (- 3) (* n!0 n!0))))
 (let ((?x453 (+ k!2 (* (- 3) n!0) ?x1018)))
 (let (($x528 (= ?x453 0)))
 (let ((?x1006 (* 18 c!3)))
 (let ((?x280 (* 5 k!2)))
 (let ((?x897 (+ ?x280 ?x1006 ?x177 ?x1007 ?x1001)))
 (let (($x965 (= ?x897 4)))
 (let (($x467 (and $x959 $x965 $x967 $x528 $x214)))
 (let ((?x843 (+ ?x378 ?x141 (* (- 84) (* c!3 k!2 k!2)) (* 216 (* c!3 k!2 m!1 n!0)) (* 648 (* c!3 k!2 n!0)) ?x376 ?x510 ?x511 (* 648 (* c!3 k!2)) (* 108 (* c!3 c!3 m!1 n!0)) ?x411 (* 132 (* c!3 k!2 m!1)) ?x418 ?x419 (* (- 42) (* c!3 c!3 k!2)) ?x509 (* (- 7) (* c!3 c!3 k!2 m!1)) (* (- 14) (* c!3 k!2 k!2 m!1)) ?x191 ?x452 (* 4 (* c!3 k!2 m!1 m!1)) ?x312 (* 9 (* c!3 c!3 m!1 m!1 n!0)) (* 18 (* c!3 k!2 m!1 m!1 n!0)) (* 9 (* k!2 k!2 m!1 m!1 n!0)) (* 110 (* k!2 k!2 m!1 n!0)) (* 4 (* k!2 m!1 m!1 n!0)) (* 2 (* m!1 m!1 m!1 n!0)) ?x917 (* 24 (* k!2 m!1 n!0)) ?x918 (* 12 (* m!1 m!1 n!0)))))
 (let (($x943 (not (= (* ?x843 (+ 2 ?x919 ?x939 ?x940 ?x1014 (* m!1 n!0))) 0))))
 (let (($x343 (= (+ ?x1011 (* 3 k!2) ?x1013 ?x1002 (* (- 1) (* m!1 n!0))) 2)))
 (let (($x947 (or (not (= (+ m!1 (* (- 6) n!0)) 6)) (not (= (+ ?x936 ?x197 ?x398 ?x177 ?x1007 ?x232 ?x1001 ?x538 ?x413) 13)) (not $x343) $x943 (not (= (+ k!2 m!1 ?x177 ?x1018) 6)))))
 (let (($x1005 (= (+ m!1 (* (- 6) n!0)) 6)))
 (let (($x853 (and $x1005 (= (+ ?x1006 ?x280 ?x177 ?x1007 ?x1001) 4) (= (+ ?x1011 k!2 ?x1013 ?x1002) 0) $x528 $x947)))
 (let (($x1026 (exists ((c Int) (k Int) (m Int) (n Int) )(! (let (($x1049 (not (= (+ k m (* (- 9) n) (* (- 3) (* n n))) 6))))
 (let ((?x374 (* m n)))
 (let ((?x52 (* k n)))
 (let ((?x56 (* 2 n)))
 (let ((?x233 (* (- 3) c)))
 (let ((?x539 (+ 2 ?x233 (* (- 3) k) ?x56 ?x52 ?x374)))
 (let ((?x742 (* 2 (* m m m n))))
 (let ((?x702 (* 9 (* k k m m n))))
 (let ((?x696 (* 9 (* c c m m n))))
 (let ((?x616 (* (- 7) (* k k k m))))
 (let ((?x607 (* (- 7) (* c c k m))))
 (let ((?x994 (+ (* 336 (* k k)) (* 336 (* k k n)) (* (- 84) (* c k k)) (* 216 (* c k m n)) (* 648 (* c k n)) (* (- 42) (* k k k)) (* 324 (* c c)) (* 324 (* c c n)) (* 648 (* c k)) (* 108 (* c c m n)) (* 66 (* c c m)) (* 132 (* c k m)) (* 24 (* k m)) (* 12 (* m m)) (* (- 42) (* c c k)) (* 68 (* k k m)) ?x607 (* (- 14) (* c k k m)) ?x616 (* 2 (* c c m m)) (* 4 (* c k m m)) (* 2 (* k k m m)) ?x696 (* 18 (* c k m m n)) ?x702 (* 110 (* k k m n)) (* 4 (* k m m n)) ?x742 (* 2 (* m m m)) (* 24 (* k m n)) (* 4 (* k m m)) (* 12 (* m m n)))))
 (let ((?x265 (* (- 1) ?x52)))
 (let ((?x264 (* (- 2) n)))
 (let ((?x262 (* 3 c)))
 (let (($x555 (not (= (+ ?x262 (* 3 k) ?x264 ?x265 (* (- 1) ?x374)) 2))))
 (let ((?x162 (* 9 (* c n))))
 (let ((?x46 (* k k)))
 (let ((?x225 (* (- 1) ?x46)))
 (let ((?x224 (* (- 9) n)))
 (let ((?x437 (* 5 m)))
 (let ((?x525 (+ (* 27 c) (* 32 k) ?x437 ?x224 ?x225 (* 9 ?x52) ?x162 (* (- 2) (* k m)) (* (- 1) (* m m)))))
 (let (($x529 (not (= ?x525 13))))
 (let (($x145 (= (+ m (* (- 6) n)) 6)))
 (let (($x363 (not $x145)))
 (let (($x303 (= (+ k (* (- 3) n) (* (- 3) (* n n))) 0)))
 (let (($x267 (= (+ ?x262 k ?x264 ?x265) 0)))
 (let (($x222 (= (+ (* 18 c) (* 5 k) ?x224 ?x225 ?x162) 4)))
 (and $x145 $x222 $x267 $x303 (or $x363 $x529 $x555 (not (= (* ?x994 ?x539) 0)) $x1049)))))))))))))))))))))))))))))) :qid k!38))
 ))
 (let (($x349 (exists ((c Int) (k Int) (m Int) (n Int) )(! (let ((?x224 (* (- 9) n)))
 (let ((?x437 (* 5 m)))
 (let ((?x37 (* 18 c)))
 (let ((?x287 (+ ?x37 (* 23 k) (* 9 (* (+ 1 n) (+ c k))) ?x437 ?x224 (* (- 1) (* (+ k m) (+ k m))))))
 (let (($x145 (= (+ m (* (- 6) n)) 6)))
 (let (($x363 (not $x145)))
 (let ((?x264 (* (- 2) n)))
 (let ((?x262 (* 3 c)))
 (let ((?x542 (+ ?x262 (* 4 k) (* (- 1) (* (+ 1 n) (+ k m))) m ?x264)))
 (let ((?x61 (* 3 n)))
 (let ((?x408 (* (- 1) m)))
 (let ((?x377 (* (- 1) k)))
 (let (($x252 (= (+ (* 3 (* (+ 1 n) (+ 1 n))) ?x377 ?x408 ?x61) (- 3))))
 (let (($x257 (not $x252)))
 (let ((?x56 (* 2 n)))
 (let ((?x74 (+ k m)))
 (let ((?x439 (+ 1 n)))
 (let ((?x537 (* ?x439 ?x74)))
 (let ((?x235 (* (- 4) k)))
 (let ((?x233 (* (- 3) c)))
 (let ((?x292 (* 9 (* ?x439 (+ 6 m) (+ 6 m) (+ c k) (+ c k)))))
 (let ((?x244 (+ (* (- 7) (* (+ 6 m) ?x74 (+ c k) (+ c k))) ?x292 (* 2 (* ?x439 (+ 6 m) ?x74 ?x74)))))
 (let (($x245 (not (= (* ?x244 (+ 2 ?x233 ?x235 ?x537 ?x408 ?x56)) 0))))
 (let (($x333 (= (+ (* 3 (* n n)) ?x377 ?x61) 0)))
 (let ((?x46 (* k k)))
 (let ((?x225 (* (- 1) ?x46)))
 (let ((?x41 (* 5 k)))
 (and $x145 (= (+ ?x37 (* 9 (* n c)) ?x41 ?x224 ?x225) 4) (= (+ ?x262 (* (- 1) (* n k)) k ?x264) 0) $x333 (or $x245 $x257 (not (= ?x542 2)) $x363 (not (= ?x287 13))))))))))))))))))))))))))))))) :qid k!38))
 ))
 (let ((?x470 (lambda ((c Int) (k Int) (m Int) (n Int) )(let (($x1049 (not (= (+ k m (* (- 9) n) (* (- 3) (* n n))) 6))))
 (let ((?x374 (* m n)))
 (let ((?x52 (* k n)))
 (let ((?x56 (* 2 n)))
 (let ((?x233 (* (- 3) c)))
 (let ((?x539 (+ 2 ?x233 (* (- 3) k) ?x56 ?x52 ?x374)))
 (let ((?x742 (* 2 (* m m m n))))
 (let ((?x702 (* 9 (* k k m m n))))
 (let ((?x696 (* 9 (* c c m m n))))
 (let ((?x616 (* (- 7) (* k k k m))))
 (let ((?x607 (* (- 7) (* c c k m))))
 (let ((?x994 (+ (* 336 (* k k)) (* 336 (* k k n)) (* (- 84) (* c k k)) (* 216 (* c k m n)) (* 648 (* c k n)) (* (- 42) (* k k k)) (* 324 (* c c)) (* 324 (* c c n)) (* 648 (* c k)) (* 108 (* c c m n)) (* 66 (* c c m)) (* 132 (* c k m)) (* 24 (* k m)) (* 12 (* m m)) (* (- 42) (* c c k)) (* 68 (* k k m)) ?x607 (* (- 14) (* c k k m)) ?x616 (* 2 (* c c m m)) (* 4 (* c k m m)) (* 2 (* k k m m)) ?x696 (* 18 (* c k m m n)) ?x702 (* 110 (* k k m n)) (* 4 (* k m m n)) ?x742 (* 2 (* m m m)) (* 24 (* k m n)) (* 4 (* k m m)) (* 12 (* m m n)))))
 (let ((?x265 (* (- 1) ?x52)))
 (let ((?x264 (* (- 2) n)))
 (let ((?x262 (* 3 c)))
 (let (($x555 (not (= (+ ?x262 (* 3 k) ?x264 ?x265 (* (- 1) ?x374)) 2))))
 (let ((?x162 (* 9 (* c n))))
 (let ((?x46 (* k k)))
 (let ((?x225 (* (- 1) ?x46)))
 (let ((?x224 (* (- 9) n)))
 (let ((?x437 (* 5 m)))
 (let ((?x525 (+ (* 27 c) (* 32 k) ?x437 ?x224 ?x225 (* 9 ?x52) ?x162 (* (- 2) (* k m)) (* (- 1) (* m m)))))
 (let (($x529 (not (= ?x525 13))))
 (let (($x145 (= (+ m (* (- 6) n)) 6)))
 (let (($x363 (not $x145)))
 (let (($x303 (= (+ k (* (- 3) n) (* (- 3) (* n n))) 0)))
 (let (($x267 (= (+ ?x262 k ?x264 ?x265) 0)))
 (let (($x222 (= (+ (* 18 c) (* 5 k) ?x224 ?x225 ?x162) 4)))
 (let (($x1052 (and $x145 $x222 $x267 $x303 (or $x363 $x529 $x555 (not (= (* ?x994 ?x539) 0)) $x1049))))
 (let ((?x37 (* 18 c)))
 (let ((?x287 (+ ?x37 (* 23 k) (* 9 (* (+ 1 n) (+ c k))) ?x437 ?x224 (* (- 1) (* (+ k m) (+ k m))))))
 (let ((?x542 (+ ?x262 (* 4 k) (* (- 1) (* (+ 1 n) (+ k m))) m ?x264)))
 (let ((?x61 (* 3 n)))
 (let ((?x408 (* (- 1) m)))
 (let ((?x377 (* (- 1) k)))
 (let (($x252 (= (+ (* 3 (* (+ 1 n) (+ 1 n))) ?x377 ?x408 ?x61) (- 3))))
 (let (($x257 (not $x252)))
 (let ((?x74 (+ k m)))
 (let ((?x439 (+ 1 n)))
 (let ((?x537 (* ?x439 ?x74)))
 (let ((?x235 (* (- 4) k)))
 (let ((?x292 (* 9 (* ?x439 (+ 6 m) (+ 6 m) (+ c k) (+ c k)))))
 (let ((?x244 (+ (* (- 7) (* (+ 6 m) ?x74 (+ c k) (+ c k))) ?x292 (* 2 (* ?x439 (+ 6 m) ?x74 ?x74)))))
 (let (($x245 (not (= (* ?x244 (+ 2 ?x233 ?x235 ?x537 ?x408 ?x56)) 0))))
 (let (($x333 (= (+ (* 3 (* n n)) ?x377 ?x61) 0)))
 (let (($x175 (= (+ ?x37 (* 9 (* n c)) (* 5 k) ?x224 ?x225) 4)))
 (let (($x305 (and $x145 $x175 (= (+ ?x262 (* (- 1) (* n k)) k ?x264) 0) $x333 (or $x245 $x257 (not (= ?x542 2)) $x363 (not (= ?x287 13))))))
 (rewrite (= $x305 $x1052))))))))))))))))))))))))))))))))))))))))))))))))))
 ))
 (let (($x513 (exists ((c Int) (k Int) (m Int) (n Int) )(! (let ((?x56 (* 2 n)))
 (let ((?x408 (* (- 1) m)))
 (let ((?x74 (+ k m)))
 (let ((?x439 (+ 1 n)))
 (let ((?x537 (* ?x439 ?x74)))
 (let ((?x235 (* (- 4) k)))
 (let ((?x233 (* (- 3) c)))
 (let (($x145 (= (+ m (* (- 6) n)) 6)))
 (let (($x363 (not $x145)))
 (let ((?x80 (* ?x74 ?x74)))
 (let ((?x45 (* 9 n)))
 (let ((?x461 (* (- 18) c)))
 (let ((?x285 (+ ?x461 (* (- 23) k) (* (- 9) (* ?x439 (+ c k))) (* (- 5) m) ?x45 ?x80)))
 (let (($x252 (= (+ (* 3 (* ?x439 ?x439)) (* (- 1) k) ?x408 (* 3 n)) (- 3))))
 (let (($x257 (not $x252)))
 (let ((?x292 (* 9 (* ?x439 (+ 6 m) (+ 6 m) (+ c k) (+ c k)))))
 (let ((?x244 (+ (* (- 7) (* (+ 6 m) ?x74 (+ c k) (+ c k))) ?x292 (* 2 (* ?x439 (+ 6 m) ?x74 ?x74)))))
 (let (($x245 (not (= (* ?x244 (+ 2 ?x233 ?x235 ?x537 ?x408 ?x56)) 0))))
 (let (($x307 (or $x245 $x257 (not (= ?x285 (- 13))) $x363 (not (= (+ ?x233 ?x235 ?x537 ?x408 ?x56) (- 2))))))
 (let (($x333 (= (+ (* 3 (* n n)) (* (- 1) k) (* 3 n)) 0)))
 (let (($x369 (= (+ ?x461 (* (- 9) (* n c)) (* (- 5) k) ?x45 (* k k)) (- 4))))
 (and $x145 $x369 (= (+ ?x233 (* n k) (* (- 1) k) ?x56) 0) $x333 $x307)))))))))))))))))))))) :qid k!38))
 ))
 (let ((?x336 (lambda ((c Int) (k Int) (m Int) (n Int) )(let ((?x224 (* (- 9) n)))
 (let ((?x437 (* 5 m)))
 (let ((?x37 (* 18 c)))
 (let ((?x287 (+ ?x37 (* 23 k) (* 9 (* (+ 1 n) (+ c k))) ?x437 ?x224 (* (- 1) (* (+ k m) (+ k m))))))
 (let (($x145 (= (+ m (* (- 6) n)) 6)))
 (let (($x363 (not $x145)))
 (let ((?x264 (* (- 2) n)))
 (let ((?x262 (* 3 c)))
 (let ((?x542 (+ ?x262 (* 4 k) (* (- 1) (* (+ 1 n) (+ k m))) m ?x264)))
 (let ((?x61 (* 3 n)))
 (let ((?x408 (* (- 1) m)))
 (let ((?x377 (* (- 1) k)))
 (let (($x252 (= (+ (* 3 (* (+ 1 n) (+ 1 n))) ?x377 ?x408 ?x61) (- 3))))
 (let (($x257 (not $x252)))
 (let ((?x56 (* 2 n)))
 (let ((?x74 (+ k m)))
 (let ((?x439 (+ 1 n)))
 (let ((?x537 (* ?x439 ?x74)))
 (let ((?x235 (* (- 4) k)))
 (let ((?x233 (* (- 3) c)))
 (let ((?x292 (* 9 (* ?x439 (+ 6 m) (+ 6 m) (+ c k) (+ c k)))))
 (let ((?x244 (+ (* (- 7) (* (+ 6 m) ?x74 (+ c k) (+ c k))) ?x292 (* 2 (* ?x439 (+ 6 m) ?x74 ?x74)))))
 (let (($x245 (not (= (* ?x244 (+ 2 ?x233 ?x235 ?x537 ?x408 ?x56)) 0))))
 (let (($x333 (= (+ (* 3 (* n n)) ?x377 ?x61) 0)))
 (let ((?x46 (* k k)))
 (let ((?x225 (* (- 1) ?x46)))
 (let ((?x41 (* 5 k)))
 (let (($x305 (and $x145 (= (+ ?x37 (* 9 (* n c)) ?x41 ?x224 ?x225) 4) (= (+ ?x262 (* (- 1) (* n k)) k ?x264) 0) $x333 (or $x245 $x257 (not (= ?x542 2)) $x363 (not (= ?x287 13))))))
 (let ((?x80 (* ?x74 ?x74)))
 (let ((?x45 (* 9 n)))
 (let ((?x461 (* (- 18) c)))
 (let ((?x285 (+ ?x461 (* (- 23) k) (* (- 9) (* ?x439 (+ c k))) (* (- 5) m) ?x45 ?x80)))
 (let (($x307 (or $x245 $x257 (not (= ?x285 (- 13))) $x363 (not (= (+ ?x233 ?x235 ?x537 ?x408 ?x56) (- 2))))))
 (let (($x369 (= (+ ?x461 (* (- 9) (* n c)) (* (- 5) k) ?x45 ?x46) (- 4))))
 (let (($x295 (and $x145 $x369 (= (+ ?x233 (* n k) ?x377 ?x56) 0) $x333 $x307)))
 (rewrite (= $x295 $x305))))))))))))))))))))))))))))))))))))))
 ))
 (let (($x110 (exists ((c Int) (k Int) (m Int) (n Int) )(! (let ((?x66 (+ n 1)))
 (let ((?x100 (+ m 6)))
 (let ((?x74 (+ k m)))
 (let ((?x104 (+ (* (- 7) (+ c k) (+ c k) ?x74 ?x100) (* 9 (+ c k) (+ c k) ?x100 ?x100 ?x66) (* 2 ?x74 ?x74 ?x100 ?x66))))
 (let ((?x89 (+ (- (+ (* (- 3) (+ c k)) (* ?x74 ?x66)) ?x74) (* 2 ?x66))))
 (let ((?x80 (* ?x74 ?x74)))
 (let ((?x78 (- (- (- 4 (* 18 (+ c k))) (* 9 (+ c k) ?x66)) (* 5 ?x74))))
 (let (($x108 (or (not (= (- (+ (- 6) m 6) (* 6 ?x66)) 0)) (not (= (+ ?x78 (* 9 ?x66) ?x80) 0)) (not (= ?x89 0)) (not (= (+ (- (* 3 ?x66 ?x66) ?x74) (* 3 ?x66)) 0)) (not (= (* ?x89 ?x104) 0)))))
 (let (($x58 (= (+ (- (+ (* (- 3) c) (* k n)) k) (* 2 n)) 0)))
 (let ((?x46 (* k k)))
 (let ((?x45 (* 9 n)))
 (let ((?x41 (* 5 k)))
 (let ((?x47 (+ (- (- (- 4 (* 18 c)) (* 9 c n)) ?x41) ?x45 ?x46)))
 (and (= (- (+ (- 6) m) (* 6 n)) 0) (= ?x47 0) $x58 (= (+ (- (* 3 n n) k) (* 3 n)) 0) $x108)))))))))))))) :qid k!38))
 ))
 (let ((?x518 (lambda ((c Int) (k Int) (m Int) (n Int) )(let ((?x56 (* 2 n)))
 (let ((?x408 (* (- 1) m)))
 (let ((?x74 (+ k m)))
 (let ((?x439 (+ 1 n)))
 (let ((?x537 (* ?x439 ?x74)))
 (let ((?x235 (* (- 4) k)))
 (let ((?x233 (* (- 3) c)))
 (let (($x145 (= (+ m (* (- 6) n)) 6)))
 (let (($x363 (not $x145)))
 (let ((?x80 (* ?x74 ?x74)))
 (let ((?x45 (* 9 n)))
 (let ((?x461 (* (- 18) c)))
 (let ((?x285 (+ ?x461 (* (- 23) k) (* (- 9) (* ?x439 (+ c k))) (* (- 5) m) ?x45 ?x80)))
 (let (($x252 (= (+ (* 3 (* ?x439 ?x439)) (* (- 1) k) ?x408 (* 3 n)) (- 3))))
 (let (($x257 (not $x252)))
 (let ((?x292 (* 9 (* ?x439 (+ 6 m) (+ 6 m) (+ c k) (+ c k)))))
 (let ((?x244 (+ (* (- 7) (* (+ 6 m) ?x74 (+ c k) (+ c k))) ?x292 (* 2 (* ?x439 (+ 6 m) ?x74 ?x74)))))
 (let (($x245 (not (= (* ?x244 (+ 2 ?x233 ?x235 ?x537 ?x408 ?x56)) 0))))
 (let (($x307 (or $x245 $x257 (not (= ?x285 (- 13))) $x363 (not (= (+ ?x233 ?x235 ?x537 ?x408 ?x56) (- 2))))))
 (let (($x333 (= (+ (* 3 (* n n)) (* (- 1) k) (* 3 n)) 0)))
 (let (($x369 (= (+ ?x461 (* (- 9) (* n c)) (* (- 5) k) ?x45 (* k k)) (- 4))))
 (let (($x295 (and $x145 $x369 (= (+ ?x233 (* n k) (* (- 1) k) ?x56) 0) $x333 $x307)))
 (let ((?x66 (+ n 1)))
 (let ((?x100 (+ m 6)))
 (let ((?x71 (+ c k)))
 (let ((?x104 (+ (* (- 7) ?x71 ?x71 ?x74 ?x100) (* 9 ?x71 ?x71 ?x100 ?x100 ?x66) (* 2 ?x74 ?x74 ?x100 ?x66))))
 (let ((?x89 (+ (- (+ (* (- 3) ?x71) (* ?x74 ?x66)) ?x74) (* 2 ?x66))))
 (let ((?x78 (- (- (- 4 (* 18 ?x71)) (* 9 ?x71 ?x66)) (* 5 ?x74))))
 (let (($x108 (or (not (= (- (+ (- 6) m 6) (* 6 ?x66)) 0)) (not (= (+ ?x78 (* 9 ?x66) ?x80) 0)) (not (= ?x89 0)) (not (= (+ (- (* 3 ?x66 ?x66) ?x74) (* 3 ?x66)) 0)) (not (= (* ?x89 ?x104) 0)))))
 (let ((?x46 (* k k)))
 (let ((?x41 (* 5 k)))
 (let ((?x47 (+ (- (- (- 4 (* 18 c)) (* 9 c n)) ?x41) ?x45 ?x46)))
 (let (($x109 (and (= (- (+ (- 6) m) (* 6 n)) 0) (= ?x47 0) (= (+ (- (+ (* (- 3) c) (* k n)) k) ?x56) 0) (= (+ (- (* 3 n n) k) (* 3 n)) 0) $x108)))
 (rewrite (= $x109 $x295))))))))))))))))))))))))))))))))))))
 ))
 (let ((@x111 (asserted $x110)))
 (let ((@x476 (mp (mp @x111 (quant-intro (proof-bind ?x518) (= $x110 $x513)) $x513) (rewrite (= $x513 $x513)) $x513)))
 (let ((@x207 (mp (mp @x476 (quant-intro (proof-bind ?x336) (= $x513 $x349)) $x349) (quant-intro (proof-bind ?x470) (= $x349 $x1026)) $x1026)))
 (let ((@x928 (mp (mp~ @x207 (sk (~ $x1026 $x853)) $x853) (rewrite (= $x853 $x467)) $x467)))
 (let ((@x863 (and-elim @x928 $x967)))
 (let ((@x218 (unit-resolution ((_ th-lemma arith triangle-eq) (or (not $x967) $x186)) @x863 $x186)))
 (let (($x195 (>= ?x927 0)))
 (let ((@x213 (unit-resolution ((_ th-lemma arith triangle-eq) (or (not $x967) $x195)) @x863 $x195)))
 (let (($x259 (<= ?x958 (- 6))))
 (let ((@x972 (and-elim @x928 $x959)))
 (let ((@x337 (unit-resolution ((_ th-lemma arith triangle-eq) (or $x964 $x259)) @x972 $x259)))
 (let (($x633 (>= ?x958 (- 6))))
 (let ((@x360 (unit-resolution ((_ th-lemma arith triangle-eq) (or $x964 $x633)) @x972 $x633)))
 (let (($x886 (<= ?x897 4)))
 (let ((@x974 (and-elim @x928 $x965)))
 (let ((@x209 (unit-resolution ((_ th-lemma arith triangle-eq) (or (not $x965) $x886)) @x974 $x886)))
 (let (($x317 (>= ?x897 4)))
 (let ((@x193 (unit-resolution ((_ th-lemma arith triangle-eq) (or (not $x965) $x317)) @x974 $x317)))
 (let (($x165 (<= ?x453 0)))
 (let ((@x873 (and-elim @x928 $x528)))
 (let ((@x479 (unit-resolution ((_ th-lemma arith triangle-eq) (or (not $x528) $x165)) @x873 $x165)))
 (let (($x171 (>= ?x453 0)))
 (let ((@x921 (unit-resolution ((_ th-lemma arith triangle-eq) (or (not $x528) $x171)) @x873 $x171)))
 (let ((@x231 ((_ th-lemma arith) (hypothesis (not $x906)) @x360 @x337 @x921 @x479 @x360 @x337 @x213 @x218 @x193 @x209 @x193 @x209 @x213 @x218 @x193 @x209 @x213 @x218 @x193 @x209 @x360 @x337 @x213 @x218 false)))
 (let (($x956 (>= ?x970 13)))
 (let (($x152 (>= n!0 0)))
 (let (($x118 (not $x152)))
 (let (($x868 (<= m!1 6)))
 (let (($x1145 (<= m!1 12)))
 (let (($x1594 (<= n!0 1)))
 (let ((@x1721 ((_ th-lemma arith) (hypothesis (not $x1594)) @x921 @x479 @x921 @x479 @x921 @x479 @x213 @x218 @x921 @x479 @x921 @x479 @x193 @x209 false)))
 (let ((@x1718 (unit-resolution ((_ th-lemma arith assign-bounds 1 -6) (or $x1145 (not $x633) (not $x1594))) @x360 (lemma @x1721 $x1594) $x1145)))
 (let ((@x1166 (hypothesis $x1145)))
 (let (($x1093 (not $x868)))
 (let ((@x281 (hypothesis $x1093)))
 (let ((@x1167 ((_ th-lemma arith farkas 4/9 4/9 5/3 5/3 5/3 5/3 5/9 1 1 1 1 -1/9 -1/9 -1/9 -1/9 1 1 1 1 1) @x337 @x1166 @x360 @x281 @x337 @x1166 @x479 @x360 @x281 @x337 @x1166 @x193 @x360 @x281 @x921 @x218 @x360 @x281 @x337 @x1166 false)))
 (let (($x953 (>= ?x1000 0)))
 (let ((@x454 (lemma ((_ th-lemma arith farkas 1) (hypothesis (not $x953)) false) $x953)))
 (let ((@x1090 (hypothesis $x868)))
 (let ((@x229 (hypothesis $x152)))
 (let (($x125 (>= k!2 0)))
 (let ((@x1031 (lemma ((_ th-lemma arith farkas -1/3 1/3 1) (hypothesis (not $x125)) @x921 @x229 false) (or $x125 $x118))))
 (let ((@x1091 ((_ th-lemma arith gomory-cut 1/5 4/5 1/5) @x193 (unit-resolution @x1031 @x229 $x125) @x454 (>= (+ k!2 (* 2 c!3) (* (- 1) n!0) ?x1008) 1))))
 (let ((@x1092 ((_ th-lemma arith farkas 3 1 12 12 12 8 8 8 8 2/3 2/3 1) @x1091 @x193 @x229 @x337 @x1090 @x218 @x229 @x337 @x1090 @x337 @x1090 @x454 false)))
 (let ((@x1737 (unit-resolution (lemma @x1092 (or $x1093 $x118)) (unit-resolution (lemma @x1167 (or (not $x1145) $x868)) @x1718 $x868) $x118)))
 (let ((@x600 (hypothesis $x118)))
 (let (($x747 (>= n!0 (- 1))))
 (let (($x129 (>= ?x531 0)))
 (let ((@x504 (hypothesis (not $x956))))
 (let (($x463 (<= k!2 0)))
 (let (($x706 (not $x463)))
 (let (($x140 (not $x129)))
 (let ((@x601 (hypothesis $x140)))
 (let ((@x146 (lemma ((_ th-lemma arith farkas 1 1 1 1) @x601 (hypothesis (not $x125)) @x360 @x600 false) (or $x125 $x129 $x152))))
 (let ((@x149 (lemma ((_ th-lemma arith farkas 1 1 1) @x601 (hypothesis $x125) (hypothesis $x463) false) (or $x706 $x129 (not $x125)))))
 (let (($x178 (<= (+ (* 3 k!2) ?x413 (* (- 15) c!3) ?x398 ?x232) 6)))
 (let ((@x406 (hypothesis (not $x747))))
 (let ((@x182 ((_ th-lemma arith) @x360 @x406 (hypothesis $x178) @x921 @x479 @x360 @x337 @x213 @x218 @x921 @x479 @x193 @x209 @x921 @x479 @x213 @x218 @x921 @x479 @x360 @x337 @x193 @x209 @x213 @x218 @x921 @x479 @x193 @x209 @x213 @x218 false)))
 (let ((@x535 (unit-resolution (lemma @x182 (or $x747 (not $x178))) ((_ th-lemma arith gomory-cut 1/24 -1 3/4 -1/12 -1/24 5/12) @x193 @x600 @x213 @x601 @x504 @x360 $x178) $x747)))
 (let ((@x540 ((_ th-lemma arith farkas 1 -6 1 1) @x337 @x535 @x601 (unit-resolution @x149 @x601 (unit-resolution @x146 @x601 @x600 $x125) $x706) false)))
 (let (($x127 (not $x125)))
 (let ((@x139 (hypothesis $x127)))
 (let ((@x445 (lemma ((_ th-lemma arith) @x139 @x600 @x921 @x139 @x921 @x139 @x600 @x921 false) (or $x125 $x152))))
 (let ((@x391 (unit-resolution @x445 @x600 $x125)))
 (let ((@x637 (hypothesis $x125)))
 (let ((@x256 (hypothesis $x129)))
 (let ((@x489 ((_ th-lemma arith gcd-test 5 5 45 45 -20/3 -20/3 -20/3 -20/3 -20/3 -20/3 -20/3 -44/3 -44/3 -44/3 -44/3 36 36 36 36 36 36) @x360 @x337 @x213 @x218 @x454 @x637 @x256 @x360 @x406 @x193 @x209 @x637 @x256 @x360 @x406 @x637 @x256 @x360 @x406 @x637 @x406 false)))
 (let ((@x824 (unit-resolution (lemma @x489 (or $x747 $x127 $x140)) @x391 (unit-resolution (lemma @x540 (or $x129 $x152 $x956)) @x600 @x504 $x129) $x747)))
 (let (($x569 (>= c!3 (- 1))))
 (let (($x382 (not $x569)))
 (let (($x241 (>= c!3 0)))
 (let (($x1040 (not $x241)))
 (let ((@x828 (lemma ((_ th-lemma arith farkas 1 1 3 2 1 1) @x218 @x391 (hypothesis $x241) @x600 @x391 @x600 false) (or $x1040 $x152))))
 (let ((@x396 (unit-resolution @x828 @x600 $x1040)))
 (let ((@x1032 (hypothesis $x569)))
 (let ((?x478 (* k!2 c!3 c!3)))
 (let (($x1043 (>= ?x478 1)))
 (let ((@x1033 (hypothesis $x1040)))
 (let ((@x862 (hypothesis (not $x1043))))
 (let ((@x1022 ((_ th-lemma arith farkas 5 5 5 5 5 5 5 5 5 -1 17 -1 -1 9 9 18 1 1 1 1 1) @x637 @x862 @x1032 @x1033 @x1032 @x1033 @x1032 @x1033 @x862 @x1032 @x1033 @x454 @x193 @x1032 @x1033 @x1032 @x209 @x637 @x862 @x1032 @x1033 false)))
 (let ((@x315 (unit-resolution (lemma @x1022 (or $x1043 $x127 $x382 $x241)) @x1032 @x391 @x396 $x1043)))
 (let ((@x493 (lemma ((_ th-lemma arith farkas -1 1 1 -2 -2 1 1 1 1) @x218 @x1032 @x315 @x396 @x600 @x315 @x1032 @x396 @x600 false) (or $x382 $x152))))
 (let ((@x813 ((_ th-lemma arith farkas 1/3 2/5 3/5 -1/15 -1/15 3/5 3/5 1 1 1 1) @x479 @x600 (unit-resolution @x493 @x600 $x382) @x454 @x193 @x824 @x600 @x824 @x600 @x824 @x600 false)))
 ((_ th-lemma arith) @x360 @x337 @x921 @x479 @x921 @x479 @x213 @x218 @x193 @x209 @x360 @x337 (unit-resolution (lemma @x813 (or $x152 $x956)) @x1737 $x956) (lemma @x231 $x906) false)))))))))))))))))))))))))))))))))))))))))))))))))))))))))))))))))))))))))))))))))))))))))))))))))))))))))))))))))))))))))))))))))))))))))))))))))))))))))

(:added-eqs                 224
 :arith-assert-diseq        24
 :arith-assert-lower        738
 :arith-assert-upper        504
 :arith-bound-prop          6
 :arith-branch-var          37
 :arith-conflicts           44
 :arith-eq-adapter          16
 :arith-fixed-eqs           304
 :arith-gcd-tests           317
 :arith-gomory-cuts         24
 :arith-grobner             51
 :arith-ineq-splits         37
 :arith-max-min             9243
 :arith-nonlinear-bounds    142
 :arith-nonlinear-horner    397
 :arith-num-rows            22
 :arith-offset-eqs          17
 :arith-patches             91
 :arith-patches_succ        17
 :arith-pivots              869
 :arith-pseudo-nonlinear    295
 :arith-row-summations      4864
 :arith-tableau-max-columns 103
 :arith-tableau-max-rows    22
 :conflicts                 51
 :decisions                 300
 :del-clause                119
 :final-checks              195
 :max-memory                4.12
 :memory                    3.33
 :minimized-lits            6
 :mk-bool-var               266
 :mk-clause                 146
 :num-allocs                4279914
 :num-checks                1
 :propagations              237
 :rlimit-count              300727
 :time                      0.08
 :total-time                0.09)
